# Solution for model GasLib-40
# Objective value = 1.3949918563394368e+01
loadshed[innode_1] 0
loadshed[innode_2] 0
loadshed[innode_3] 0
loadshed[innode_4] 0
loadshed[innode_5] 0
loadshed[innode_6] 0
loadshed[innode_7] 0
loadshed[innode_8] 0
loadshed[source_1] -2.8441717052111515e-01
loadshed[source_2] 6.4533298059875066e-02
loadshed[source_3] 0.308124077738002
loadshed[sink_1] 0
loadshed[sink_2] 0
loadshed[sink_3] 0
loadshed[sink_4] 0
loadshed[sink_5] 0
loadshed[sink_6] 0
loadshed[sink_7] 0
loadshed[sink_8] 0
loadshed[sink_9] 0
loadshed[sink_10] 0
loadshed[sink_11] 0
loadshed[sink_12] 8.5298865101010146e-01
loadshed[sink_13] 0
loadshed[sink_14] 0
loadshed[sink_15] 0
loadshed[sink_16] 0
loadshed[sink_17] 0
loadshed[sink_18] 0
loadshed[sink_19] 0
loadshed[sink_20] 0
loadshed[sink_21] 0
loadshed[sink_22] 0
loadshed[sink_23] 0
loadshed[sink_24] 0
loadshed[sink_25] 0
loadshed[sink_26] 0
loadshed[sink_27] 0
loadshed[sink_28] 0
loadshed[sink_29] 0
flow[source_1,sink_3] 2.0305386727023046e+02
flow[innode_1,sink_16] 1.6354166666666970e+01
flow[innode_6,sink_13] 5.1003099285115621e+00
flow[sink_13,sink_14] -1.1253856738155106e+01
flow[sink_14,sink_10] -2.7608023404822006e+01
flow[sink_25,sink_26] 2.3136258143660584e+02
flow[sink_26,sink_9] 1.3027092800099703e+02
flow[sink_9,sink_18] 1.1391676133433036e+02
flow[sink_26,sink_4] 8.4737486768942048e+01
flow[sink_4,sink_20] 2.2772663902767405e+01
flow[sink_18,sink_6] 9.7562594667663689e+01
flow[sink_25,innode_8] -1.7034553393689407e+02
flow[sink_6,sink_7] 4.8500094667663234e+01
flow[sink_6,sink_22] 3.2708333333333641e+01
flow[sink_7,sink_24] 3.5112581436605637e+01
flow[sink_22,sink_1] 1.6354166666666970e+01
flow[sink_24,sink_21] 1.8758414769938966e+01
flow[sink_21,sink_12] 2.4042481032722987e+00
flow[sink_7,sink_5] -2.9666534356085918e+00
flow[sink_5,sink_17] -1.9320820102275320e+01
flow[sink_17,sink_4] -4.5610656199507972e+01
flow[sink_17,sink_8] 9.93566943056593
flow[sink_3,sink_23] 16.3541666666697
flow[sink_8,sink_20] -6.4184972361007340e+00
flow[sink_25,sink_20] 0
flow[sink_25,sink_15] -82.4715240948902
flow[sink_15,sink_29] -9.8825690761556871e+01
flow[sink_29,sink_28] 1.6354166666667879e+01
flow[sink_29,sink_2] 1.6354166666684250e+01
flow[sink_2,sink_15] 0
flow[sink_29,innode_7] -147.888190761576
flow[innode_4,sink_19] 4.1992372139285507e+01
flow[sink_19,innode_3] 7.6670523404822092e+01
flow[innode_4,innode_5] 6.7386484598869941e+01
flow[sink_27,innode_5] -6.7386484598869941e+01
flow[sink_27,sink_19] 5.1032317932203277e+01
flow[sink_10,sink_11] 3.2708333333333641e+01
flow[sink_10,innode_2] 0
flow[sink_10,innode_3] -7.6670523404822092e+01
flow[innode_6,sink_25] -5.1003099285115621e+00
flow[sink_11,innode_1] 1.6354166666666970e+01
flow[sink_19,innode_2] 0
flow[source_3,innode_4] 1.0937885673815545e+02
flow[source_2,innode_7] 147.888190761576
flow[sink_3,innode_8] 1.7034553393689407e+02
pressure[innode_1] 7.4908608961885449e+01
pressure[innode_2] 79.3120320074635
pressure[innode_3] 7.9142253815378453e+01
pressure[innode_4] 81.01325
pressure[innode_5] 8.0966898022592559e+01
pressure[innode_6] 7.3762466949181885e+01
pressure[innode_7] 81.01325
pressure[innode_8] 8.0334518491104490e+01
pressure[source_1] 81.01325
pressure[source_2] 81.01325
pressure[source_3] 81.01325
pressure[sink_1] 4.0842547623991315e+01
pressure[sink_2] 7.6643550749985877e+01
pressure[sink_3] 8.0334518491104490e+01
pressure[sink_4] 4.6693992832101550e+01
pressure[sink_5] 43.5116425059256
pressure[sink_6] 4.2943625234378686e+01
pressure[sink_7] 4.2277834541320125e+01
pressure[sink_8] 4.4576005328796512e+01
pressure[sink_9] 4.9670684949441352e+01
pressure[sink_10] 75.060310269489
pressure[sink_11] 7.4908608961885449e+01
pressure[sink_12] 1.01325
pressure[sink_13] 7.3734349792886974e+01
pressure[sink_14] 7.3754489528136531e+01
pressure[sink_15] 74.1625342030959
pressure[sink_16] 7.3886959127067769e+01
pressure[sink_17] 4.4950903948646214e+01
pressure[sink_18] 4.5548836994023823e+01
pressure[sink_19] 79.3120320074635
pressure[sink_20] 4.5023284321086422e+01
pressure[sink_21] 1.8688130601555282e+00
pressure[sink_22] 4.1906316766346322e+01
pressure[sink_23] 80.1698004794447
pressure[sink_24] 2.0765450750867
pressure[sink_25] 7.3762466949181885e+01
pressure[sink_26] 5.7467736210310953e+01
pressure[sink_27] 8.0407714717256923e+01
pressure[sink_28] 7.6762537974832355e+01
pressure[sink_29] 7.7057820248449531e+01
interdiction[source_1,sink_3] 0
interdiction[innode_1,sink_16] 0
interdiction[innode_6,sink_13] 0
interdiction[sink_13,sink_14] 0
interdiction[sink_14,sink_10] 0
interdiction[sink_25,sink_26] 0
interdiction[sink_26,sink_9] 0
interdiction[sink_9,sink_18] 0
interdiction[sink_26,sink_4] 0
interdiction[sink_4,sink_20] 0
interdiction[sink_18,sink_6] 0
interdiction[sink_25,innode_8] 0
interdiction[sink_6,sink_7] 0
interdiction[sink_6,sink_22] 0
interdiction[sink_7,sink_24] 0
interdiction[sink_22,sink_1] 0
interdiction[sink_24,sink_21] 0
interdiction[sink_21,sink_12] 0
interdiction[sink_7,sink_5] 0
interdiction[sink_5,sink_17] 0
interdiction[sink_17,sink_4] 0
interdiction[sink_17,sink_8] 0
interdiction[sink_3,sink_23] 0
interdiction[sink_8,sink_20] 0
interdiction[sink_25,sink_20] 1
interdiction[sink_25,sink_15] 0
interdiction[sink_15,sink_29] 0
interdiction[sink_29,sink_28] 0
interdiction[sink_29,sink_2] 0
interdiction[sink_2,sink_15] 1
interdiction[sink_29,innode_7] 0
interdiction[innode_4,sink_19] 0
interdiction[sink_19,innode_3] 0
interdiction[innode_4,innode_5] 0
interdiction[sink_27,innode_5] 0
interdiction[sink_27,sink_19] 0
interdiction[sink_10,sink_11] 0
interdiction[sink_10,innode_2] 1
interdiction[sink_10,innode_3] 0
interdiction[innode_6,sink_25] 0
interdiction[sink_11,innode_1] 0
interdiction[sink_19,innode_2] 0
interdiction[source_3,innode_4] 0
interdiction[source_2,innode_7] 0
interdiction[sink_3,innode_8] 0
WCcheckFlow[source_1,sink_3] 39
WCcheckFlow[innode_1,sink_16] 1
WCcheckFlow[innode_6,sink_13] 13
WCcheckFlow[sink_13,sink_14] 12
WCcheckFlow[sink_14,sink_10] 11
WCcheckFlow[sink_25,sink_26] 15
WCcheckFlow[sink_26,sink_9] 12
WCcheckFlow[sink_9,sink_18] 11
WCcheckFlow[sink_26,sink_4] 2
WCcheckFlow[sink_4,sink_20] 1
WCcheckFlow[sink_18,sink_6] 10
WCcheckFlow[sink_25,innode_8] -36
WCcheckFlow[sink_6,sink_7] 7
WCcheckFlow[sink_6,sink_22] 2
WCcheckFlow[sink_7,sink_24] 3
WCcheckFlow[sink_22,sink_1] 1
WCcheckFlow[sink_24,sink_21] 2
WCcheckFlow[sink_21,sink_12] 1
WCcheckFlow[sink_7,sink_5] 3
WCcheckFlow[sink_5,sink_17] 2
WCcheckFlow[sink_17,sink_4] 0
WCcheckFlow[sink_17,sink_8] 1
WCcheckFlow[sink_3,sink_23] 1
WCcheckFlow[sink_8,sink_20] 0
WCcheckFlow[sink_25,sink_20] 0
WCcheckFlow[sink_25,sink_15] 6
WCcheckFlow[sink_15,sink_29] 5
WCcheckFlow[sink_29,sink_28] 1
WCcheckFlow[sink_29,sink_2] 1
WCcheckFlow[sink_2,sink_15] 0
WCcheckFlow[sink_29,innode_7] 2
WCcheckFlow[innode_4,sink_19] -4
WCcheckFlow[sink_19,innode_3] -6
WCcheckFlow[innode_4,innode_5] 2
WCcheckFlow[sink_27,innode_5] -1
WCcheckFlow[sink_27,sink_19] 0
WCcheckFlow[sink_10,sink_11] 3
WCcheckFlow[sink_10,innode_2] 0
WCcheckFlow[sink_10,innode_3] 7
WCcheckFlow[innode_6,sink_25] -14
WCcheckFlow[sink_11,innode_1] 2
WCcheckFlow[sink_19,innode_2] 1
WCcheckFlow[source_3,innode_4] -1
WCcheckFlow[source_2,innode_7] -1
WCcheckFlow[sink_3,innode_8] 37
